%%%mzn-stat: initTime=0.002181565
%%%mzn-stat: objective=444
%%%mzn-stat: nodes=521
%%%mzn-stat: restarts=0
%%%mzn-stat: peakDepth=62
%%%mzn-stat: solveTime=0.016120649
%%%mzn-stat: variables=198
%%%mzn-stat: propagators=120
%%%mzn-stat: failures=457
%%%mzn-stat: propagations=26141
%%%mzn-stat: nogoods=457
%%%mzn-stat: AverageConflictSize=2.490153172866521
%%%mzn-stat: NumUnitNogoodsLearned=443
%%%mzn-stat: AverageLearnedNogoodLength=1.1028446389496718
%%%mzn-stat: AverageBacktrackAmount=0
%%%mzn-stat: AverageLbd=1.048140043763676
%%%mzn-stat-end
maxleg = 444;
succ = array1d(1..20,[14, 6, 5, 1, 12, 10, 3, 2, 13, 11, 19, 9, 20, 15, 17, 4, 8, 7, 18, 16]);
% time elapsed: 5.31 s
----------
==========
% time elapsed: 5.31 s
%%%mzn-stat: initTime=0.002181565
%%%mzn-stat: objective=444
%%%mzn-stat: nodes=521
%%%mzn-stat: restarts=0
%%%mzn-stat: peakDepth=62
%%%mzn-stat: solveTime=0.016133961
%%%mzn-stat: variables=198
%%%mzn-stat: propagators=120
%%%mzn-stat: failures=457
%%%mzn-stat: propagations=26141
%%%mzn-stat: nogoods=457
%%%mzn-stat: AverageConflictSize=2.490153172866521
%%%mzn-stat: NumUnitNogoodsLearned=443
%%%mzn-stat: AverageLearnedNogoodLength=1.1028446389496718
%%%mzn-stat: AverageBacktrackAmount=0
%%%mzn-stat: AverageLbd=1.048140043763676
%%%mzn-stat-end
